<number of tasks>
45

<cycle time>
79

<task times>
1 9
2 9
3 10
4 10
5 17
6 17
7 13
8 13
9 20
10 20
11 10
12 11
13 6
14 22
15 11
16 19
17 12
18 3
19 7
20 4
21 55
22 14
23 27
24 29
25 26
26 6
27 5
28 24
29 4
30 5
31 7
32 4
33 15
34 3
35 7
36 9
37 4
38 7
39 5
40 4
41 21
42 12
43 6
44 5
45 5

<precedence relations>
1,3
1,7
2,4
2,8
3,5
4,6
5,9
6,10
7,9
7,14
8,10
8,14
9,41
10,41
11,13
12,13
12,37
13,14
13,15
14,17
14,25
14,29
14,30
14,31
14,32
15,16
15,18
15,23
15,24
16,19
17,26
17,27
18,19
19,20
19,33
20,21
21,22
22,28
23,33
24,33
25,26
26,38
27,28
27,33
28,38
29,41
30,41
31,41
32,41
33,34
33,35
33,36
34,38
35,40
36,38
37,43
38,40
39,41
40,41
41,42
42,44
42,45

<setup times forward>
1,6:1
1,8:1
1,16:1
1,18:1
1,19:1
1,20:1
1,21:1
1,23:1
1,39:1
2,5:1
2,8:1
2,9:1
2,16:1
2,18:1
2,19:1
2,20:1
2,21:1
2,23:1
2,39:1
3,5:1
3,6:1
3,8:1
3,14:1
3,16:1
3,17:1
3,18:1
3,19:1
3,20:1
3,21:1
3,23:1
3,29:1
3,30:1
3,31:1
3,39:1
4,5:1
4,6:1
4,8:1
4,9:1
4,14:1
4,16:1
4,17:1
4,18:1
4,19:1
4,20:1
4,21:1
4,23:1
4,29:1
4,30:1
4,31:1
4,39:1
5,2:1
5,4:1
5,7:1
5,10:1
5,11:1
5,12:1
5,13:1
5,15:1
5,22:1
5,24:1
5,25:1
5,26:1
5,27:1
5,28:1
5,32:1
5,33:1
5,34:1
5,35:1
5,36:1
5,37:1
5,38:1
5,40:1
5,43:1
6,1:1
6,3:1
6,7:1
6,10:1
6,11:1
6,12:1
6,13:1
6,15:1
6,22:1
6,24:1
6,25:1
6,26:1
6,27:1
6,28:1
6,32:1
6,33:1
6,34:1
6,35:1
6,36:1
6,37:1
6,38:1
6,40:1
6,43:1
7,5:1
7,6:1
7,8:1
7,9:1
7,14:1
7,16:1
7,18:1
7,19:1
7,20:1
7,21:1
7,23:1
7,39:1
8,1:1
8,3:1
8,4:1
8,7:1
8,10:1
8,11:1
8,12:1
8,13:1
8,15:1
8,22:1
8,24:1
8,37:1
8,43:1
9,2:1
9,4:1
9,10:1
9,11:1
9,12:1
9,13:1
9,15:1
9,22:1
9,24:1
9,25:1
9,26:1
9,27:1
9,28:1
9,32:1
9,33:1
9,34:1
9,35:1
9,36:1
9,37:1
9,38:1
9,40:1
9,41:1
9,43:1
10,5:1
10,9:1
10,14:1
10,16:1
10,17:1
10,18:1
10,19:1
10,20:1
10,21:1
10,23:1
10,29:1
10,30:1
10,31:1
10,39:1
11,5:1
11,6:1
11,8:1
11,9:1
11,39:1
12,5:1
12,6:1
12,8:1
12,9:1
12,39:1
13,5:1
13,6:1
13,8:1
13,9:1
13,14:1
13,39:1
14,3:1
14,4:1
14,10:1
14,15:1
14,22:1
14,24:1
14,25:1
14,32:1
14,37:1
14,43:1
15,5:1
15,6:1
15,8:1
15,9:1
15,14:1
15,16:1
15,17:1
15,18:1
15,23:1
15,29:1
15,30:1
15,31:1
15,39:1
16,1:1
16,2:1
16,3:1
16,4:1
16,7:1
16,10:1
16,24:1
16,25:1
16,26:1
16,27:1
16,32:1
16,37:1
16,43:1
17,3:1
17,4:1
17,10:1
17,15:1
17,22:1
17,24:1
17,25:1
17,26:1
17,27:1
17,32:1
17,37:1
17,43:1
18,1:1
18,2:1
18,3:1
18,4:1
18,7:1
18,10:1
18,24:1
18,25:1
18,26:1
18,27:1
18,32:1
18,37:1
18,43:1
19,1:1
19,2:1
19,3:1
19,4:1
19,7:1
19,10:1
19,24:1
19,25:1
19,26:1
19,27:1
19,32:1
19,33:1
19,37:1
19,43:1
20,1:1
20,2:1
20,3:1
20,4:1
20,7:1
20,10:1
20,24:1
20,25:1
20,26:1
20,27:1
20,32:1
20,33:1
20,34:1
20,35:1
20,36:1
20,37:1
20,43:1
21,1:1
21,2:1
21,3:1
21,4:1
21,7:1
21,10:1
21,22:1
21,24:1
21,25:1
21,26:1
21,27:1
21,32:1
21,33:1
21,34:1
21,35:1
21,36:1
21,37:1
21,43:1
22,5:1
22,6:1
22,8:1
22,9:1
22,14:1
22,17:1
22,23:1
22,29:1
22,30:1
22,31:1
22,39:1
23,1:1
23,2:1
23,3:1
23,4:1
23,7:1
23,10:1
23,22:1
23,24:1
23,25:1
23,26:1
23,27:1
23,28:1
23,32:1
23,33:1
23,37:1
23,43:1
24,5:1
24,6:1
24,8:1
24,9:1
24,14:1
24,16:1
24,17:1
24,18:1
24,19:1
24,20:1
24,21:1
24,23:1
24,29:1
24,30:1
24,31:1
24,39:1
25,5:1
25,6:1
25,9:1
25,16:1
25,17:1
25,18:1
25,19:1
25,20:1
25,21:1
25,23:1
25,29:1
25,30:1
25,31:1
25,39:1
26,5:1
26,6:1
26,9:1
26,16:1
26,18:1
26,19:1
26,20:1
26,21:1
26,23:1
26,29:1
26,30:1
26,31:1
26,39:1
27,5:1
27,6:1
27,9:1
27,16:1
27,18:1
27,19:1
27,20:1
27,21:1
27,23:1
27,29:1
27,30:1
27,31:1
27,39:1
28,5:1
28,6:1
28,9:1
28,23:1
28,29:1
28,30:1
28,31:1
28,39:1
29,3:1
29,4:1
29,10:1
29,15:1
29,22:1
29,24:1
29,25:1
29,26:1
29,27:1
29,28:1
29,32:1
29,33:1
29,34:1
29,35:1
29,36:1
29,37:1
29,38:1
29,40:1
29,41:1
29,43:1
30,3:1
30,4:1
30,10:1
30,15:1
30,22:1
30,24:1
30,25:1
30,26:1
30,27:1
30,28:1
30,32:1
30,33:1
30,34:1
30,35:1
30,36:1
30,37:1
30,38:1
30,40:1
30,41:1
30,43:1
31,3:1
31,4:1
31,10:1
31,15:1
31,22:1
31,24:1
31,25:1
31,26:1
31,27:1
31,28:1
31,32:1
31,33:1
31,34:1
31,35:1
31,36:1
31,37:1
31,38:1
31,40:1
31,41:1
31,43:1
32,5:1
32,6:1
32,9:1
32,16:1
32,17:1
32,18:1
32,19:1
32,20:1
32,21:1
32,23:1
32,29:1
32,30:1
32,31:1
32,39:1
33,5:1
33,6:1
33,9:1
33,20:1
33,21:1
33,29:1
33,30:1
33,31:1
33,39:1
34,5:1
34,6:1
34,9:1
34,20:1
34,21:1
34,29:1
34,30:1
34,31:1
34,39:1
35,5:1
35,6:1
35,9:1
35,20:1
35,21:1
35,29:1
35,30:1
35,31:1
35,39:1
36,5:1
36,6:1
36,9:1
36,20:1
36,21:1
36,29:1
36,30:1
36,31:1
36,39:1
37,5:1
37,6:1
37,8:1
37,9:1
37,14:1
37,16:1
37,17:1
37,18:1
37,19:1
37,20:1
37,21:1
37,23:1
37,29:1
37,30:1
37,31:1
37,39:1
38,5:1
38,6:1
38,9:1
38,29:1
38,30:1
38,31:1
38,39:1
39,1:1
39,2:1
39,3:1
39,4:1
39,7:1
39,10:1
39,11:1
39,12:1
39,13:1
39,15:1
39,22:1
39,24:1
39,25:1
39,26:1
39,27:1
39,28:1
39,32:1
39,33:1
39,34:1
39,35:1
39,36:1
39,37:1
39,38:1
39,40:1
39,41:1
39,43:1
40,5:1
40,6:1
40,9:1
40,29:1
40,30:1
40,31:1
40,39:1
43,5:1
43,6:1
43,8:1
43,9:1
43,14:1
43,16:1
43,17:1
43,18:1
43,19:1
43,20:1
43,21:1
43,23:1
43,29:1
43,30:1
43,31:1
43,39:1

<setup times backward>
5,1:1
5,2:1
5,3:1
5,4:1
5,7:1
5,10:1
5,11:1
5,12:1
5,13:1
5,15:1
5,22:1
5,24:1
5,25:1
5,26:1
5,27:1
5,28:1
5,32:1
5,33:1
5,34:1
5,35:1
5,36:1
5,37:1
5,38:1
5,40:1
5,43:1
6,1:1
6,2:1
6,3:1
6,4:1
6,7:1
6,11:1
6,12:1
6,13:1
6,15:1
6,22:1
6,24:1
6,25:1
6,26:1
6,27:1
6,28:1
6,32:1
6,33:1
6,34:1
6,35:1
6,36:1
6,37:1
6,38:1
6,40:1
6,43:1
8,1:1
8,2:1
8,3:1
8,4:1
8,7:1
8,11:1
8,12:1
8,13:1
8,15:1
8,22:1
8,24:1
8,37:1
8,43:1
9,1:1
9,2:1
9,3:1
9,4:1
9,7:1
9,10:1
9,11:1
9,12:1
9,13:1
9,15:1
9,22:1
9,24:1
9,25:1
9,26:1
9,27:1
9,28:1
9,32:1
9,33:1
9,34:1
9,35:1
9,36:1
9,37:1
9,38:1
9,40:1
9,43:1
14,1:1
14,2:1
14,3:1
14,4:1
14,7:1
14,10:1
14,11:1
14,12:1
14,13:1
14,15:1
14,22:1
14,24:1
14,37:1
14,43:1
16,1:1
16,2:1
16,3:1
16,4:1
16,7:1
16,10:1
16,11:1
16,12:1
16,13:1
16,15:1
16,24:1
16,25:1
16,26:1
16,27:1
16,32:1
16,37:1
16,43:1
17,1:1
17,2:1
17,3:1
17,4:1
17,7:1
17,10:1
17,11:1
17,12:1
17,13:1
17,15:1
17,22:1
17,24:1
17,25:1
17,32:1
17,37:1
17,43:1
18,1:1
18,2:1
18,3:1
18,4:1
18,7:1
18,10:1
18,11:1
18,12:1
18,13:1
18,15:1
18,24:1
18,25:1
18,26:1
18,27:1
18,32:1
18,37:1
18,43:1
19,1:1
19,2:1
19,3:1
19,4:1
19,7:1
19,10:1
19,11:1
19,12:1
19,13:1
19,15:1
19,24:1
19,25:1
19,26:1
19,27:1
19,32:1
19,37:1
19,43:1
20,1:1
20,2:1
20,3:1
20,4:1
20,7:1
20,10:1
20,11:1
20,12:1
20,13:1
20,15:1
20,24:1
20,25:1
20,26:1
20,27:1
20,32:1
20,33:1
20,34:1
20,35:1
20,36:1
20,37:1
20,43:1
21,1:1
21,2:1
21,3:1
21,4:1
21,7:1
21,10:1
21,11:1
21,12:1
21,13:1
21,15:1
21,24:1
21,25:1
21,26:1
21,27:1
21,32:1
21,33:1
21,34:1
21,35:1
21,36:1
21,37:1
21,43:1
23,1:1
23,2:1
23,3:1
23,4:1
23,7:1
23,10:1
23,11:1
23,12:1
23,13:1
23,15:1
23,22:1
23,24:1
23,25:1
23,26:1
23,27:1
23,28:1
23,32:1
23,37:1
23,43:1
29,1:1
29,2:1
29,3:1
29,4:1
29,7:1
29,10:1
29,11:1
29,12:1
29,13:1
29,15:1
29,22:1
29,24:1
29,25:1
29,26:1
29,27:1
29,28:1
29,32:1
29,33:1
29,34:1
29,35:1
29,36:1
29,37:1
29,38:1
29,40:1
29,43:1
30,1:1
30,2:1
30,3:1
30,4:1
30,7:1
30,10:1
30,11:1
30,12:1
30,13:1
30,15:1
30,22:1
30,24:1
30,25:1
30,26:1
30,27:1
30,28:1
30,32:1
30,33:1
30,34:1
30,35:1
30,36:1
30,37:1
30,38:1
30,40:1
30,43:1
31,1:1
31,2:1
31,3:1
31,4:1
31,7:1
31,10:1
31,11:1
31,12:1
31,13:1
31,15:1
31,22:1
31,24:1
31,25:1
31,26:1
31,27:1
31,28:1
31,32:1
31,33:1
31,34:1
31,35:1
31,36:1
31,37:1
31,38:1
31,40:1
31,43:1
39,1:1
39,2:1
39,3:1
39,4:1
39,7:1
39,10:1
39,11:1
39,12:1
39,13:1
39,15:1
39,22:1
39,24:1
39,25:1
39,26:1
39,27:1
39,28:1
39,32:1
39,33:1
39,34:1
39,35:1
39,36:1
39,37:1
39,38:1
39,40:1
39,43:1

<end>

<optimal SALBP-1 value>
7


<rand seed>
467321153

<Lower Bounds>
Lm1=7
Lms1=7
Lm2=1
Lm3=2
Lm4=7
Best=7

<Optimal Stations (Iterations: 10)>
8
